
******************************************************************************
This program contains Ipopt, a library for large-scale nonlinear optimization.
 Ipopt is released as open source code under the Eclipse Public License (EPL).
         For more information visit http://projects.coin-or.org/Ipopt
******************************************************************************

This is Ipopt version 3.12.6, running with linear solver ma57.

Number of nonzeros in equality constraint Jacobian...:     9999
Number of nonzeros in inequality constraint Jacobian.:        0
Number of nonzeros in Lagrangian Hessian.............:     9999

Total number of variables............................:     5000
                     variables with only lower bounds:        0
                variables with lower and upper bounds:     5000
                     variables with only upper bounds:        0
Total number of equality constraints.................:     5000
Total number of inequality constraints...............:        0
        inequality constraints with only lower bounds:        0
   inequality constraints with lower and upper bounds:        0
        inequality constraints with only upper bounds:        0

iter    objective    inf_pr   inf_du lg(mu)  ||d||  lg(rg) alpha_du alpha_pr  ls
   0  1.9289985e-02 1.93e+02 7.72e-02  -1.0 0.00e+00    -  0.00e+00 0.00e+00   0
   1 -4.2866655e-03 9.65e+01 6.14e+06  -1.0 3.33e-01    -  6.75e-01 1.00e+00h  1
   2 -5.2921919e-04 9.65e+00 6.14e+06  -1.0 7.41e-02    -  1.00e+00 1.00e+00f  1
   3 -6.6142598e-06 1.18e-01 6.92e+06  -1.0 9.14e-03    -  1.00e+00 1.00e+00f  1
   4 -1.0082798e-09 1.79e-05 6.78e+06  -1.0 1.14e-04    -  1.00e+00 1.00e+00h  1
   5 -2.2486989e-17 4.00e-13 1.28e+03  -1.0 1.74e-08    -  1.00e+00 1.00e+00h  1

Number of Iterations....: 5

                                   (scaled)                 (unscaled)
Objective...............:  -2.2486988578894411e-17   -2.2486988578894411e-17
Dual infeasibility......:   1.7290314145712582e-16    1.7290314145712582e-16
Constraint violation....:   6.9080580117035256e-14    3.9976952756748406e-13
Complementarity.........:   0.0000000000000000e+00    0.0000000000000000e+00
Overall NLP error.......:   6.9080580117035256e-14    3.9976952756748406e-13


Number of objective function evaluations             = 6
Number of objective gradient evaluations             = 6
Number of equality constraint evaluations            = 6
Number of inequality constraint evaluations          = 0
Number of equality constraint Jacobian evaluations   = 6
Number of inequality constraint Jacobian evaluations = 0
Number of Lagrangian Hessian evaluations             = 5
Total CPU secs in IPOPT (w/o function evaluations)   =      0.053
Total CPU secs in NLP function evaluations           =      0.027

EXIT: Optimal Solution Found.

************************ CUTEst statistics ************************


 Package used            :  IPOPT
 Problem                 :  READING5  
 # variables             =            5001
 # constraints           =            5000
 # objective functions   =        0.1300000E+02
 # objective gradients   =        0.7000000E+01
 # objective Hessians    =        0.6000000E+01
 # Hessian-vector prdct  =        0.0000000E+00
 # constraints functions =        0.1400000E+02
 # constraints gradients =        0.8000000E+01
 # constraints Hessians  =        0.6000000E+01
 Exit code               =               0
 Final f                 =  -0.2248699E-16
 Set up time             =            0.11 seconds
 Solve time              =            0.22 seconds


******************************************************************

System Time =       0.0619999990 s.
